p cnf 91 377
12 13 -31 58 -73 79 0
-14 -15 -31 57 58 -80 0
3 23 -50 68 -91 0
-3 67 68 -89 91 0
4 -16 -49 -50 -51 0
4 -16 -49 -50 -68 0
-4 -63 78 82 -84 0
9 46 -47 -48 64 0
20 41 53 -54 -70 0
-21 22 -69 70 -72 0
22 41 53 71 -72 0
13 -31 -73 -78 79 0
-16 -19 -49 -51 -89 0
1 3 24 56 0
1 3 56 -62 0
1 8 42 60 0
1 -42 -60 83 0
1 60 69 70 0
-1 -22 69 -88 0
-2 -5 -65 82 0
3 19 51 -68 0
3 50 -66 89 0
-3 13 67 91 0
-3 -16 68 -89 0
-3 -19 -23 91 0
-3 50 -66 -89 0
5 52 78 -84 0
-5 -6 -65 82 0
-5 62 -63 84 0
-8 10 60 88 0
-8 42 45 83 0
-8 45 48 -55 0
9 40 -43 45 0
10 11 26 57 0
10 -19 -27 -56 0
10 20 21 88 0
12 -27 -28 57 0
12 78 -79 84 0
-12 58 -78 -79 0
-13 68 -85 90 0
-18 -19 -38 -39 0
19 38 39 64 0
20 53 -69 -70 0
21 70 83 88 0
23 -65 -75 -76 0
24 -32 59 61 0
24 -35 59 61 0
-24 -33 35 -59 0
25 -32 56 59 0
25 74 75 76 0
-35 36 37 82 0
42 46 83 -87 0
50 66 67 -89 0
51 67 -68 -89 0
66 67 -86 89 0
67 68 -86 91 0
2 24 -32 56 0
-3 -23 67 91 0
4 -49 -68 90 0
4 -49 90 -91 0
-7 -8 -42 -60 0
10 21 83 88 0
10 -21 -77 88 0
11 12 -31 57 0
11 58 76 -80 0
-14 57 78 79 0
-17 -19 -23 -40 0
-17 22 -72 77 0
19 39 60 69 0
19 51 81 85 0
-19 -23 -44 65 0
-19 -23 79 80 0
20 -38 41 71 0
20 53 71 -72 0
-20 -22 69 70 0
23 -74 -75 76 0
-25 -26 -27 -28 0
45 46 -48 -60 0
46 48 -55 -87 0
-50 -51 68 -89 0
69 70 -77 88 0
1 10 83 0
1 27 32 0
1 -43 -87 0
1 45 60 0
-1 8 -70 0
-1 -32 61 0
-1 -45 -83 0
2 5 -62 0
2 33 56 0
2 -35 65 0
-2 -5 62 0
3 16 -68 0
3 32 -56 0
3 -50 -91 0
-3 13 67 0
-3 -16 -68 0
4 19 -51 0
4 23 -91 0
4 -61 78 0
-4 -61 -78 0
-5 -63 -78 0
6 -36 -37 0
-6 -24 -35 0
-6 37 62 0
7 8 55 0
7 9 64 0
-7 -8 -45 0
8 -10 -70 0
-8 -9 -64 0
-8 -10 -70 0
-8 -45 -53 0
-8 -83 87 0
-8 -83 -88 0
-9 -46 -64 0
10 -33 -88 0
10 44 -69 0
11 -33 80 0
-11 -14 76 0
-12 -19 -57 0
-12 30 31 0
13 -51 91 0
-13 -67 86 0
-13 -85 90 0
14 58 78 0
15 -29 30 0
-15 76 80 0
-16 68 -86 0
17 18 54 0
17 23 38 0
17 23 40 0
17 38 54 0
17 44 -71 0
-17 -18 -77 0
18 21 69 0
18 41 47 0
-18 -23 -48 0
19 -33 59 0
19 -51 68 0
19 74 75 0
-19 -41 -48 0
-19 -51 -81 0
-22 41 -53 0
23 27 34 0
23 41 60 0
23 56 59 0
-23 -24 -28 0
-23 25 -27 0
-23 82 84 0
24 35 -59 0
24 -35 -59 0
25 30 33 0
25 65 -74 0
-25 -32 -34 0
-25 -36 -65 0
-25 -65 -76 0
26 -27 -34 0
-26 28 31 0
-27 34 57 0
29 -30 73 0
29 -31 37 0
-29 37 57 0
-31 -34 -57 0
36 -37 63 0
38 54 64 0
38 -71 72 0
-39 -40 -43 0
40 43 -87 0
-40 -60 -87 0
-41 70 72 0
-42 46 60 0
-42 83 88 0
43 44 77 0
46 47 -64 0
-46 -47 -48 0
-46 -47 -53 0
-47 54 64 0
49 81 85 0
-50 66 89 0
-50 -66 -89 0
51 67 85 0
51 -81 -85 0
52 -61 82 0
52 -78 84 0
-54 -70 72 0
57 58 -73 0
-61 -62 -74 0
66 86 90 0
66 -86 -90 0
-66 -67 89 0
-66 -86 90 0
74 -75 -76 0
74 -76 82 0
13 -31 78 -79 0
1 20 0
1 -36 0
1 59 0
1 83 0
-1 -3 0
-1 8 0
-1 -22 0
-1 -45 0
-1 -59 0
-1 71 0
-1 73 0
-1 -83 0
2 3 0
2 6 0
2 -74 0
2 82 0
-2 -5 0
-2 61 0
-2 62 0
-2 -65 0
3 7 0
3 17 0
3 -91 0
-3 13 0
-3 35 0
-3 50 0
-3 -66 0
4 8 0
4 16 0
4 44 0
4 -52 0
4 61 0
4 63 0
4 -73 0
4 -82 0
4 -91 0
-4 61 0
5 40 0
5 63 0
5 -82 0
-5 -6 0
-5 -52 0
6 35 0
6 -62 0
6 -82 0
-6 61 0
-6 -61 0
-6 -65 0
7 8 0
7 9 0
7 42 0
7 45 0
7 -48 0
7 -55 0
7 59 0
7 60 0
7 64 0
-7 -46 0
-7 87 0
8 38 0
8 -46 0
8 83 0
8 -88 0
-8 -42 0
-8 70 0
-8 -87 0
9 -47 0
9 -83 0
-9 43 0
10 -30 0
10 -57 0
10 -70 0
10 -72 0
10 79 0
-10 -12 0
-10 27 0
-10 28 0
-10 -54 0
-10 -56 0
-10 -88 0
11 14 0
11 34 0
11 -76 0
-11 30 0
-11 -57 0
12 -84 0
-12 -13 0
-12 -37 0
-12 73 0
-12 78 0
-12 79 0
13 49 0
13 67 0
13 -90 0
13 91 0
-13 -49 0
-13 57 0
14 30 0
14 31 0
14 -57 0
14 -58 0
14 73 0
14 -78 0
-14 -73 0
-14 -76 0
15 31 0
15 -57 0
15 -58 0
-15 29 0
16 49 0
16 50 0
-16 -23 0
-16 -91 0
17 22 0
17 -81 0
-17 44 0
-17 71 0
18 48 0
18 64 0
-18 42 0
-18 -47 0
-18 69 0
-18 -69 0
-18 81 0
19 -30 0
19 34 0
19 40 0
19 42 0
19 47 0
19 48 0
19 56 0
19 60 0
19 -75 0
19 -80 0
-19 -26 0
-19 -28 0
-19 -43 0
-19 -52 0
-19 54 0
-19 -54 0
-19 -55 0
-19 -64 0
-19 -79 0
-19 83 0
-19 84 0
-19 -84 0
-19 86 0
-19 89 0
20 -72 0
20 -77 0
-20 -21 0
-20 72 0
-20 77 0
-20 -77 0
21 22 0
-21 42 0
-21 -88 0
22 -53 0
22 69 0
22 -77 0
-22 -41 0
-22 -60 0
23 28 0
23 -30 0
23 -36 0
23 39 0
23 42 0
23 -51 0
23 -68 0
23 69 0
23 75 0
23 -80 0
23 81 0
-23 30 0
-23 -43 0
-23 -51 0
-23 -53 0
-23 -54 0
-23 -60 0
-23 -84 0
-23 -85 0
24 28 0
24 35 0
